(set-logic ALL)
(declare-const k Int)
(declare-fun s () (_ BitVec k))
(declare-fun t () (_ BitVec k))
(assert (distinct (distinct s (bvand s (bvurem (_ bv0 k) t))) (bvult (bvurem (_ bv1 k) t) s)))
(check-sat)
